6
0       5.00	7.07	16.55	15.52	18.00
5.00	0	    5.00	11.70	11.05	14.32
7.07	5.00	0	    14.00	14.32	18.38
16.55	11.70	14.00	0	    3.00	7.62
15.52	11.05	14.32	3.00	0	    5.00
18.00   14.32   18.38   7.62    5.00    0
